CPXPARAM_Emphasis_MIP#P8#1#2.702304#0.470397
CPXPARAM_Emphasis_MIP#P8#2#0.802109#0.139625
CPXPARAM_Emphasis_MIP#P8#4#5.241708#0.912437
CPXPARAM_Emphasis_MIP#P8#5#5.744735#1.000000
CPXPARAM_MIP_Cuts_Disjunctive#P15#0#2.691429#0.468504
CPXPARAM_MIP_Cuts_Disjunctive#P15#2#1.868518#0.325257
CPXPARAM_MIP_Cuts_FlowCovers#P16#0#2.699325#0.469878
CPXPARAM_MIP_Cuts_PathCut#P21#0#3.264001#0.568173
CPXPARAM_MIP_Cuts_PathCut#P21#1#1.418870#0.246986
CPXPARAM_MIP_Cuts_PathCut#P21#2#4.016152#0.699101
